SDVRP instances/custom_instances/p04_13_split0.vrp
NAME:p04_13_split
BEST_KNOWN: 0
COMMENT: 0
DIMENSION: 686
CAPACITY: 200
EDGE_WEIGHT_FORMAT: FUNCTION
EDGE_WEIGHT_TYPE: EXACT_2D
NODE_COORD_SECTION
1 0.00000 0.00000
2 36 20
3 36 20
4 36 20
5 36 20
6 36 20
7 20 0
8 20 0
9 20 0
10 20 0
11 20 0
12 -21 38
13 -21 38
14 -21 38
15 -21 38
16 -21 38
17 -21 38
18 11 7
19 11 7
20 11 7
21 11 7
22 11 7
23 11 7
24 -26 3
25 -26 3
26 -26 3
27 -26 3
28 -26 3
29 -26 3
30 -26 3
31 -26 3
32 23 36
33 23 36
34 23 36
35 23 36
36 23 36
37 23 36
38 -29 -15
39 -29 -15
40 -29 -15
41 -3 -3
42 -3 -3
43 -3 -3
44 -3 -3
45 -2 16
46 -2 16
47 -2 16
48 19 26
49 19 26
50 19 26
51 19 26
52 19 26
53 7 29
54 7 29
55 7 29
56 -23 44
57 -23 44
58 33 40
59 33 40
60 33 40
61 33 40
62 -3 33
63 -3 33
64 -3 33
65 -3 33
66 -3 26
67 -3 26
68 -3 26
69 9 -4
70 9 -4
71 9 -4
72 9 -4
73 -13 45
74 -13 45
75 -13 45
76 -13 45
77 -29 -38
78 -29 -38
79 -29 -38
80 -21 -41
81 -21 -41
82 -21 -41
83 -21 -41
84 -21 -41
85 -21 -41
86 -21 -12
87 -21 -12
88 -21 -12
89 -21 -12
90 -21 -12
91 -21 -12
92 -25 14
93 -25 14
94 20 24
95 20 24
96 9 25
97 9 25
98 9 25
99 9 25
100 9 25
101 9 25
102 -25 34
103 -25 34
104 -25 34
105 -25 34
106 -25 34
107 -22 8
108 -22 8
109 -22 8
110 -22 8
111 -22 8
112 -22 8
113 -22 8
114 22 0
115 22 0
116 22 0
117 22 0
118 22 0
119 -40 43
120 -40 43
121 42 27
122 42 27
123 42 27
124 42 27
125 42 27
126 42 27
127 42 27
128 42 27
129 -48 -14
130 -48 -14
131 -48 -14
132 -48 -14
133 -48 -14
134 -48 -14
135 36 -49
136 36 -49
137 36 -49
138 36 -49
139 36 -49
140 36 -49
141 -37 39
142 -37 39
143 -37 39
144 -37 39
145 -37 39
146 -37 39
147 19 33
148 19 33
149 19 33
150 19 33
151 19 33
152 32 33
153 32 33
154 32 33
155 32 33
156 32 33
157 26 -16
158 26 -16
159 26 -16
160 26 -16
161 26 -16
162 26 -16
163 26 -16
164 0 0
165 0 0
166 0 0
167 0 0
168 0 0
169 37 -30
170 37 -30
171 20 -49
172 20 -49
173 20 -49
174 20 -49
175 30 -20
176 30 -20
177 30 -20
178 30 -20
179 38 -9
180 38 -9
181 38 -9
182 -6 -14
183 -6 -14
184 -6 -14
185 -6 -14
186 24 -31
187 24 -31
188 24 -31
189 24 -31
190 24 -31
191 24 -31
192 -23 -33
193 -23 -33
194 -23 -33
195 -23 -33
196 4 49
197 4 49
198 4 49
199 4 49
200 4 49
201 4 49
202 4 49
203 -9 -40
204 -9 -40
205 -9 -40
206 -9 -40
207 37 -3
208 37 -3
209 37 -3
210 50 -42
211 50 -42
212 50 -42
213 50 -42
214 50 -42
215 48 -5
216 48 -5
217 48 -5
218 48 -5
219 48 -5
220 50 -36
221 50 -36
222 50 -36
223 50 -36
224 50 -36
225 50 -36
226 48 -12
227 48 -12
228 48 -12
229 48 -12
230 48 -12
231 48 -12
232 48 -12
233 48 -12
234 -41 43
235 -41 43
236 -41 43
237 -41 43
238 -41 43
239 -41 43
240 16 47
241 16 47
242 16 47
243 16 47
244 16 47
245 -39 -18
246 -39 -18
247 -39 -18
248 -39 -18
249 -39 -18
250 -39 -18
251 -39 -18
252 25 -50
253 -16 23
254 -16 23
255 34 -28
256 34 -28
257 34 -28
258 34 -28
259 34 -28
260 8 -49
261 8 -49
262 8 -49
263 -22 26
264 -22 26
265 -22 26
266 -22 26
267 -22 26
268 -22 26
269 -22 26
270 28 -19
271 28 -19
272 28 -19
273 28 -19
274 28 -19
275 -39 42
276 -39 42
277 -39 42
278 -39 42
279 -39 42
280 -39 42
281 -39 42
282 12 -3
283 12 -3
284 12 -3
285 12 -3
286 12 -3
287 -39 -31
288 -39 -31
289 44 43
290 44 43
291 39 -32
292 39 -32
293 39 -32
294 24 33
295 24 33
296 24 33
297 40 2
298 40 2
299 40 2
300 40 2
301 40 2
302 40 2
303 -47 -28
304 -47 -28
305 -47 -28
306 -47 -28
307 -47 -28
308 -47 -28
309 -47 -28
310 -38 17
311 -38 17
312 -38 17
313 46 -4
314 46 -4
315 46 -4
316 46 -4
317 46 -4
318 46 -4
319 -18 49
320 -18 49
321 -18 49
322 -18 49
323 -5 18
324 -5 18
325 -5 18
326 -5 18
327 -23 25
328 -23 25
329 -23 25
330 -23 25
331 -23 25
332 11 22
333 11 22
334 11 22
335 -19 26
336 -19 26
337 -19 26
338 -19 26
339 -19 26
340 -19 26
341 -19 26
342 28 37
343 28 37
344 28 37
345 28 37
346 28 37
347 28 37
348 -19 -8
349 -19 -8
350 -19 -8
351 -19 -8
352 -10 -38
353 -10 -38
354 -10 -38
355 -10 -38
356 -10 -38
357 15 -36
358 15 -36
359 36 48
360 36 48
361 36 48
362 36 48
363 36 48
364 36 48
365 -11 40
366 -11 40
367 -11 40
368 -11 40
369 46 -2
370 46 -2
371 46 -2
372 46 -2
373 46 -2
374 46 -2
375 46 -2
376 14 -9
377 14 -9
378 14 -9
379 14 -9
380 14 -9
381 14 -9
382 -19 17
383 -19 17
384 -19 17
385 -19 17
386 -19 17
387 34 40
388 34 40
389 -50 -26
390 -50 -26
391 -50 -26
392 -50 -26
393 5 -6
394 5 -6
395 5 -6
396 5 -6
397 5 -6
398 -27 25
399 -27 25
400 -27 25
401 -27 25
402 39 -33
403 39 -33
404 39 -33
405 6 34
406 6 34
407 6 34
408 6 34
409 13 -16
410 13 -16
411 13 -16
412 13 -16
413 13 -16
414 13 -16
415 -25 -30
416 -25 -30
417 -25 -30
418 -25 -30
419 -25 -30
420 -25 -30
421 27 44
422 27 44
423 -13 26
424 -13 26
425 -13 26
426 -13 26
427 -13 26
428 10 -8
429 10 -8
430 10 -8
431 10 -8
432 10 -8
433 10 -8
434 -38 8
435 -38 8
436 -38 8
437 -38 8
438 -38 8
439 17 -15
440 17 -15
441 17 -15
442 17 -15
443 17 -15
444 21 -19
445 -35 -33
446 -35 -33
447 -35 -33
448 -35 -33
449 -35 -33
450 -35 -33
451 29 20
452 29 20
453 29 20
454 29 20
455 -34 32
456 -34 32
457 -34 32
458 48 15
459 48 15
460 48 15
461 48 15
462 48 15
463 -40 28
464 -40 28
465 45 26
466 45 26
467 -43 23
468 -43 23
469 -43 23
470 -43 23
471 -14 -28
472 -14 -28
473 -14 -28
474 -14 -28
475 45 -44
476 45 -44
477 5 -28
478 5 -28
479 5 -28
480 5 -28
481 5 -28
482 5 -28
483 3 -22
484 3 -22
485 3 -22
486 -17 21
487 -17 21
488 -16 -1
489 -16 -1
490 -16 -1
491 -16 -1
492 -16 -1
493 -16 -1
494 -14 -19
495 -14 -19
496 43 -49
497 43 -49
498 43 -49
499 43 -49
500 22 -9
501 22 -9
502 22 -9
503 9 28
504 9 28
505 26 -22
506 26 -22
507 26 -22
508 26 -22
509 26 -22
510 26 -22
511 26 -22
512 26 -22
513 -46 30
514 -46 30
515 -46 30
516 -46 30
517 -46 30
518 -46 30
519 -24 -34
520 -24 -34
521 -24 -34
522 -24 -34
523 -24 -34
524 -4 -8
525 -4 -8
526 -4 -8
527 -4 -8
528 -4 -8
529 19 -18
530 19 -18
531 19 -18
532 19 -18
533 19 -18
534 8 16
535 8 16
536 8 16
537 33 39
538 33 39
539 33 39
540 33 39
541 33 39
542 33 39
543 44 -38
544 44 -38
545 21 -5
546 21 -5
547 21 -5
548 10 -13
549 10 -13
550 10 -13
551 10 -13
552 7 5
553 7 5
554 7 5
555 7 5
556 7 5
557 -7 -30
558 -7 -30
559 -7 -30
560 -7 -30
561 -7 -30
562 16 5
563 16 5
564 16 5
565 16 5
566 16 5
567 16 5
568 16 5
569 -18 -19
570 -18 -19
571 -18 -19
572 -18 -19
573 31 9
574 31 9
575 31 9
576 31 9
577 2 34
578 2 34
579 2 34
580 2 34
581 2 34
582 2 34
583 49 -29
584 49 -29
585 15 23
586 15 23
587 15 23
588 15 23
589 15 23
590 15 23
591 15 23
592 32 -13
593 32 -13
594 32 -13
595 32 -13
596 -19 -22
597 -19 -22
598 -19 -22
599 -19 -22
600 -23 29
601 -23 29
602 -23 29
603 -23 29
604 -23 29
605 21 -44
606 21 -44
607 21 -44
608 21 -44
609 21 -44
610 21 -44
611 21 -44
612 -13 -37
613 -13 -37
614 -34 0
615 -34 0
616 -34 0
617 -34 0
618 -34 0
619 -38 47
620 -38 47
621 -38 47
622 -4 -11
623 -4 -11
624 -4 -11
625 -4 -11
626 -4 -11
627 -4 -11
628 -4 -11
629 -46 14
630 -46 14
631 -46 14
632 -46 14
633 -46 14
634 19 -7
635 19 -7
636 19 -7
637 19 -7
638 19 -7
639 19 -7
640 -22 50
641 -22 50
642 -22 50
643 -22 50
644 -22 50
645 -22 50
646 14 -21
647 14 -21
648 14 -21
649 14 -21
650 14 -21
651 14 -21
652 -13 -46
653 -13 -46
654 -13 -46
655 -13 -46
656 -13 -46
657 -13 -46
658 -13 -46
659 14 -26
660 14 -26
661 14 -26
662 14 -26
663 14 -26
664 14 -26
665 34 23
666 34 23
667 34 23
668 6 40
669 6 40
670 6 40
671 6 40
672 6 40
673 -38 13
674 -38 13
675 -38 13
676 -38 13
677 -44 -36
678 -44 -36
679 -44 -36
680 -44 -36
681 -50 12
682 -50 12
683 -50 12
684 -50 12
685 -50 12
686 -50 12
DEMAND_SECTION
1 0
2 20
3 2
4 2
5 2
6 1
7 40
8 40
9 2
10 2
11 1
12 40
13 40
14 10
15 2
16 2
17 1
18 40
19 10
20 2
21 2
22 2
23 2
24 40
25 20
26 10
27 2
28 2
29 2
30 2
31 1
32 40
33 40
34 2
35 2
36 2
37 2
38 40
39 40
40 20
41 40
42 20
43 10
44 1
45 40
46 2
47 1
48 20
49 10
50 2
51 2
52 2
53 40
54 40
55 10
56 20
57 10
58 40
59 20
60 2
61 2
62 40
63 40
64 10
65 2
66 40
67 20
68 2
69 40
70 20
71 2
72 2
73 40
74 20
75 2
76 1
77 40
78 10
79 1
80 40
81 40
82 2
83 2
84 2
85 1
86 40
87 40
88 10
89 2
90 2
91 2
92 40
93 40
94 40
95 10
96 40
97 20
98 10
99 2
100 2
101 2
102 40
103 40
104 2
105 2
106 2
107 40
108 40
109 2
110 2
111 2
112 2
113 1
114 40
115 20
116 2
117 2
118 1
119 40
120 1
121 40
122 20
123 10
124 2
125 2
126 2
127 2
128 1
129 20
130 2
131 2
132 2
133 2
134 1
135 40
136 20
137 10
138 2
139 2
140 1
141 40
142 10
143 2
144 2
145 2
146 2
147 40
148 2
149 2
150 2
151 2
152 40
153 20
154 2
155 2
156 1
157 40
158 20
159 10
160 2
161 2
162 2
163 1
164 40
165 40
166 10
167 2
168 2
169 40
170 40
171 40
172 10
173 2
174 2
175 40
176 2
177 2
178 1
179 20
180 10
181 1
182 40
183 10
184 2
185 2
186 20
187 10
188 2
189 2
190 2
191 1
192 20
193 10
194 2
195 2
196 40
197 20
198 2
199 2
200 2
201 2
202 1
203 40
204 2
205 2
206 2
207 40
208 40
209 1
210 40
211 40
212 10
213 2
214 2
215 40
216 10
217 2
218 2
219 2
220 40
221 2
222 2
223 2
224 2
225 1
226 40
227 20
228 10
229 2
230 2
231 2
232 2
233 1
234 40
235 40
236 2
237 2
238 2
239 2
240 40
241 10
242 2
243 2
244 2
245 40
246 20
247 10
248 2
249 2
250 2
251 2
252 40
253 40
254 20
255 20
256 2
257 2
258 2
259 2
260 40
261 20
262 1
263 20
264 10
265 2
266 2
267 2
268 2
269 1
270 40
271 2
272 2
273 2
274 1
275 40
276 20
277 10
278 2
279 2
280 2
281 1
282 40
283 20
284 2
285 2
286 2
287 40
288 2
289 20
290 10
291 20
292 10
293 1
294 40
295 20
296 2
297 40
298 40
299 2
300 2
301 2
302 1
303 40
304 40
305 10
306 2
307 2
308 2
309 2
310 40
311 20
312 2
313 40
314 40
315 10
316 2
317 2
318 2
319 40
320 40
321 2
322 2
323 20
324 2
325 2
326 1
327 20
328 2
329 2
330 2
331 2
332 40
333 40
334 20
335 40
336 40
337 2
338 2
339 2
340 2
341 1
342 40
343 20
344 10
345 2
346 2
347 1
348 20
349 2
350 2
351 1
352 40
353 40
354 10
355 2
356 2
357 40
358 20
359 40
360 20
361 2
362 2
363 2
364 1
365 40
366 20
367 10
368 1
369 40
370 20
371 10
372 2
373 2
374 2
375 1
376 40
377 20
378 2
379 2
380 2
381 2
382 40
383 2
384 2
385 2
386 2
387 40
388 1
389 40
390 40
391 10
392 1
393 40
394 10
395 2
396 2
397 2
398 40
399 40
400 10
401 1
402 40
403 40
404 20
405 40
406 20
407 2
408 1
409 40
410 40
411 2
412 2
413 2
414 1
415 40
416 20
417 2
418 2
419 2
420 1
421 40
422 40
423 20
424 2
425 2
426 2
427 1
428 20
429 10
430 2
431 2
432 2
433 1
434 20
435 2
436 2
437 2
438 2
439 40
440 20
441 2
442 2
443 1
444 40
445 40
446 40
447 2
448 2
449 2
450 1
451 40
452 2
453 2
454 2
455 40
456 20
457 10
458 20
459 10
460 2
461 2
462 1
463 40
464 20
465 40
466 20
467 40
468 40
469 10
470 1
471 40
472 20
473 2
474 2
475 40
476 2
477 40
478 40
479 2
480 2
481 2
482 2
483 40
484 40
485 1
486 40
487 20
488 20
489 2
490 2
491 2
492 2
493 1
494 40
495 40
496 40
497 20
498 10
499 1
500 40
501 40
502 1
503 40
504 20
505 40
506 20
507 10
508 2
509 2
510 2
511 2
512 1
513 40
514 40
515 10
516 2
517 2
518 1
519 40
520 2
521 2
522 2
523 2
524 40
525 2
526 2
527 2
528 2
529 20
530 2
531 2
532 2
533 2
534 40
535 20
536 1
537 20
538 10
539 2
540 2
541 2
542 2
543 40
544 20
545 40
546 10
547 1
548 40
549 10
550 2
551 2
552 40
553 10
554 2
555 2
556 2
557 40
558 20
559 10
560 2
561 1
562 40
563 10
564 2
565 2
566 2
567 2
568 1
569 40
570 20
571 10
572 1
573 40
574 2
575 2
576 2
577 40
578 2
579 2
580 2
581 2
582 1
583 40
584 1
585 40
586 40
587 10
588 2
589 2
590 2
591 1
592 20
593 10
594 2
595 1
596 20
597 2
598 2
599 1
600 40
601 10
602 2
603 2
604 2
605 40
606 40
607 10
608 2
609 2
610 2
611 2
612 40
613 2
614 40
615 40
616 2
617 2
618 2
619 40
620 40
621 20
622 40
623 20
624 2
625 2
626 2
627 2
628 1
629 20
630 10
631 2
632 2
633 1
634 20
635 2
636 2
637 2
638 2
639 1
640 40
641 10
642 2
643 2
644 2
645 1
646 40
647 2
648 2
649 2
650 2
651 1
652 40
653 40
654 2
655 2
656 2
657 2
658 1
659 20
660 10
661 2
662 2
663 2
664 1
665 40
666 20
667 1
668 20
669 10
670 2
671 2
672 1
673 20
674 10
675 2
676 1
677 40
678 40
679 2
680 1
681 40
682 40
683 2
684 2
685 2
686 1
DEPOT_SECTION
1
-1
EOF