SDVRP instances/custom_instances/p04_13_split0.sol
685 -6 7 8 9 10 114 116 115 113 117 283 285 281 284 -16 15 12 11 13 14 103 101 105 104 102 601 600 602 -36 35 358 363 361 362 359 360 288 289 60 59 536 344 341 343 346 345 342 -43 40 42 41 525 526 527 524 523 625 623 622 621 624 627 626 -46 45 44 67 66 65 64 63 62 61 -50 47 294 421 420 240 241 239 242 243 671 669 668 670 406 -54 53 52 404 407 405 578 577 581 579 576 580 -56 55 639 643 642 641 640 644 318 319 321 320 73 74 75 -85 88 569 570 571 568 494 493 -91 92 398 399 400 397 326 329 330 327 328 -93 450 453 451 452 666 664 3 1 2 5 4 575 572 574 573 -94 51 48 49 295 293 31 33 34 32 146 149 148 147 150 -106 25 27 23 26 24 615 614 616 617 613 -111 110 108 107 309 311 310 469 466 467 468 -112 109 675 673 674 672 629 628 630 631 632 682 685 683 680 684 681 437 434 436 435 433 28 29 30 492 488 491 490 489 -132 131 130 128 129 133 389 390 391 388 245 247 249 250 246 248 244 -140 145 141 144 142 143 119 118 618 619 620 -157 271 273 269 272 270 174 177 175 504 508 507 505 529 528 530 531 -162 159 161 160 158 156 594 592 591 593 179 178 207 206 -164 165 167 68 70 71 69 396 393 395 394 392 -166 163 553 551 18 20 19 22 17 21 567 561 563 564 562 565 -176 582 583 219 220 221 224 222 223 542 543 401 -180 228 230 232 231 226 225 227 229 215 218 217 216 214 314 315 317 316 313 373 371 208 -182 184 183 181 556 557 483 482 484 -188 186 187 185 189 190 474 475 213 211 210 212 209 403 532 -193 191 76 78 77 447 446 448 444 449 445 286 -255 256 257 254 258 169 168 292 290 291 402 511 510 506 509 -260 261 259 170 171 172 173 605 604 609 607 -265 267 266 262 263 268 264 603 599 338 337 336 334 339 335 340 422 426 425 423 424 -278 280 275 279 277 276 274 235 233 234 238 237 236 455 456 -282 427 428 430 432 429 431 413 409 410 412 411 408 550 547 548 549 -287 676 678 677 679 307 302 303 304 306 308 305 -299 297 298 301 300 296 369 374 368 370 372 312 -323 325 324 322 253 252 486 485 382 384 385 383 381 -331 333 332 585 584 586 589 590 588 587 -349 350 347 348 87 86 90 89 37 38 39 487 -365 367 366 364 72 196 200 197 195 198 199 201 667 -377 376 380 500 501 499 546 544 545 636 633 637 635 638 634 -379 378 375 442 440 439 441 438 443 647 648 649 650 645 646 -454 513 514 515 516 517 512 462 463 -471 81 84 82 79 83 80 656 652 654 657 653 655 651 -472 470 473 192 194 518 522 519 521 520 414 416 418 419 417 415 598 597 596 595 -480 477 481 478 479 476 357 356 661 660 662 663 659 658 -497 495 498 496 138 136 139 135 137 134 251 610 608 606 -503 502 97 95 96 100 99 98 535 533 534 -540 537 539 541 538 57 58 387 386 152 153 155 151 154 552 554 555 -559 560 558 202 204 205 203 354 355 353 351 352 612 611 -566 458 460 459 457 461 465 464 123 121 126 127 122 120 125 124 665 0 





OBJ=
4250.794
BEST_KNOWN=
0.000